words_train/words_880_SAT.qaiger
aag 40 16 0 1 24
32
10
14
8
22
4
20
26
6
30
12
2
18
16
28
24
81
34 28 16
36 23 11
38 37 35
40 26 14
42 25 13
44 29 17
46 45 43
48 46 41
50 21 9
52 24 12
54 53 51
56 18 6
58 57 4
60 58 54
62 60 48
64 19 7
66 20 8
68 27 15
70 69 67
72 70 65
74 22 10
76 75 72
78 76 62
80 78 38
i0 1 x[7]
i1 2 z[4]
i2 2 z[6]
i3 2 z[3]
i4 1 x[2]
i5 2 z[1]
i6 1 x[1]
i7 1 x[4]
i8 2 z[2]
i9 1 x[6]
i10 2 z[5]
i11 2 z[0]
i12 1 x[0]
i13 2 z[7]
i14 1 x[5]
i15 1 x[3]
o0 bool[0]
c
simplified
  !=
    or
      invert
        2 z
      1
    add
      1
      << 2
        1 x
