words_train/words_880_SAT.qaiger.qdimacs
p cnf 40 73
a 9 10 11 12 13 14 15 16 0
e 1 2 3 4 5 6 7 8 17 18 19 20 21 22 23 24 25 26 27 28 29 30 31 32 33 34 35 36 37 38 39 40 0
-14 -8 17 0
14 -17 0
8 -17 0
11 5 18 0
-11 -18 0
-5 -18 0
18 17 19 0
-18 -19 0
-17 -19 0
-13 -7 20 0
13 -20 0
7 -20 0
12 6 21 0
-12 -21 0
-6 -21 0
14 8 22 0
-14 -22 0
-8 -22 0
22 21 23 0
-22 -23 0
-21 -23 0
-23 20 24 0
23 -24 0
-20 -24 0
10 4 25 0
-10 -25 0
-4 -25 0
-12 -6 26 0
12 -26 0
6 -26 0
26 25 27 0
-26 -27 0
-25 -27 0
-9 -3 28 0
9 -28 0
3 -28 0
28 -2 29 0
-28 -29 0
2 -29 0
-29 -27 30 0
29 -30 0
27 -30 0
-30 -24 31 0
30 -31 0
24 -31 0
9 3 32 0
-9 -32 0
-3 -32 0
-10 -4 33 0
10 -33 0
4 -33 0
13 7 34 0
-13 -34 0
-7 -34 0
34 33 35 0
-34 -35 0
-33 -35 0
-35 32 36 0
35 -36 0
-32 -36 0
-11 -5 37 0
11 -37 0
5 -37 0
37 -36 38 0
-37 -38 0
36 -38 0
-38 -31 39 0
38 -39 0
31 -39 0
-39 -19 40 0
39 -40 0
19 -40 0
-40 0
